Traveling Salesman Problem/TSP_generados/Aleatorio1621104065_19.tsp
NAME: Aleatorio1621104065_19.tsp
COMMENT: Randomly generated scenario
TYPE: TSP
DIMENSION: 19
EDGE_WEIGHT_TYPE: ATT
NODE_COORD_SECTION
1 22.29 32.46
2 39.04 8.23
3 11.84 13.53
4 40.33 38.05
5 43.14 26.25
6 21.66 5.15
7 29.21 16.07
8 24.8 2.4
9 9.72 23.93
10 49.85 6.35
11 27.99 28.85
12 4.65 46.7
13 18.04 26.84
14 18.14 21.62
15 49.49 11.84
16 22.09 5.14
17 29.0 45.13
18 17.21 3.99
19 46.41 31.8
