Traveling Salesman Problem/TSP_generados/Aleatorio1621104065_19.opt.tour
NAME: Aleatorio1621104065_19.opt.tour
COMMENT: Optimal solution for Aleatorio1621104065_19 (196.0448636810116)
TYPE: TOUR
DIMENSION: 19
TOUR_SECTION
1 11 13 14 9 3 18 6 16 8 7 2 10 15 5 19 4 17 12
-1
EOF
